
Note: the module "julia" cannot be unloaded because it was not loaded.

2023/11/29
gurobi is now 11.0.0
previous version was 10.0.2
solving instance uflp nlass gunluk ../../../../../instances/uflp/gunluk/gunluk-40-80-6.txt exp
The latest version of Julia in the `1.10` channel is 1.10.6+0.x64.linux.gnu. You currently have `1.10.5+0.x64.linux.gnu` installed. Run:

  juliaup update

in your terminal shell to install Julia 1.10.6+0.x64.linux.gnu and update the `1.10` channel to that version.
presolving:
(round 1, fast)       0 del vars, 0 del conss, 0 add conss, 3200 chg bounds, 0 chg sides, 0 chg coeffs, 0 upgd conss, 0 impls, 3200 clqs
(round 2, exhaustive) 0 del vars, 0 del conss, 0 add conss, 3200 chg bounds, 0 chg sides, 0 chg coeffs, 6400 upgd conss, 0 impls, 3200 clqs
   (1.8s) probing: 1000/3240 (30.9%) - 0 fixings, 0 aggregations, 999 implications, 0 bound changes
   (1.8s) probing: 1001/3240 (30.9%) - 0 fixings, 0 aggregations, 1000 implications, 0 bound changes
   (1.8s) probing aborted: 1000/1000 successive useless probings
   (1.8s) symmetry computation started: requiring (bin +, int +, cont +), (fixed: bin -, int -, cont -)
   (1.8s) no symmetry present (symcode time: 0.03)
presolving (3 rounds: 3 fast, 2 medium, 2 exhaustive):
 0 deleted vars, 0 deleted constraints, 0 added constraints, 3200 tightened bounds, 0 added holes, 0 changed sides, 0 changed coefficients
 4200 implications, 3200 cliques
presolved problem has 9640 variables (3240 bin, 0 int, 0 impl, 6400 cont) and 9680 constraints
   3200 constraints of type <varbound>
   3200 constraints of type <setppc>
     80 constraints of type <linear>
   3200 constraints of type <nonlinear>
Presolving Time: 1.78

 time | node  | left  |LP iter|LP it/n|mem/heur|mdpt |vars |cons |rows |cuts |sepa|confs|strbr|  dualbound   | primalbound  |  gap   | compl. 
p 2.5s|     1 |     0 |  3189 |     - |  clique|   0 |  19k|9680 |  28k|   0 |  0 |   0 |   0 |-1.220703e-02 | 4.695333e+03 |    Inf | unknown
  4.1s|     1 |     0 | 21770 |     - |   230M |   0 |  19k|9680 |  28k|   0 |  0 |3200 |   0 | 9.628071e+02 | 4.695333e+03 | 387.67%| unknown
  5.1s|     1 |     0 | 22662 |     - |   244M |   0 |  19k|9680 |  29k| 341 |  1 |3200 |   0 | 1.082907e+03 | 4.695333e+03 | 333.59%| unknown
  5.5s|     1 |     0 | 23414 |     - |   249M |   0 |  19k|9680 |  29k| 567 |  2 |3200 |   0 | 1.120643e+03 | 4.695333e+03 | 318.99%| unknown
  5.9s|     1 |     0 | 24019 |     - |   253M |   0 |  19k|9680 |  29k| 710 |  3 |3200 |   0 | 1.137909e+03 | 4.695333e+03 | 312.63%| unknown
t 5.9s|     1 |     0 | 24019 |     - |  trysol|   0 |  19k|9680 |  29k| 710 |  3 |3200 |   0 | 1.137909e+03 | 4.562854e+03 | 300.99%| unknown
  6.2s|     1 |     0 | 24233 |     - |   261M |   0 |  19k|9680 |  29k| 820 |  4 |3200 |   0 | 1.140561e+03 | 4.562854e+03 | 300.05%| unknown
t 6.3s|     1 |     0 | 24233 |     - |  trysol|   0 |  19k|9680 |  29k| 820 |  4 |3200 |   0 | 1.140561e+03 | 2.042146e+03 |  79.05%| unknown
  6.4s|     1 |     0 | 24323 |     - |   267M |   0 |  19k|9680 |  29k| 838 |  5 |3200 |   0 | 1.141296e+03 | 2.042146e+03 |  78.93%| unknown
  6.5s|     1 |     0 | 24325 |     - |   269M |   0 |  19k|9680 |  29k| 838 |  5 |3200 |   0 | 1.141296e+03 | 2.042146e+03 |  78.93%| unknown
  6.6s|     1 |     0 | 24339 |     - |   272M |   0 |  19k|9680 |  29k| 848 |  6 |3200 |   0 | 1.141431e+03 | 2.042146e+03 |  78.91%| unknown
t 6.7s|     1 |     0 | 24339 |     - |  trysol|   0 |  19k|9680 |  29k| 848 |  6 |3200 |   0 | 1.141431e+03 | 2.011837e+03 |  76.26%| unknown
  6.8s|     1 |     0 | 24364 |     - |   278M |   0 |  19k|9680 |  29k| 852 |  7 |3200 |   0 | 1.141446e+03 | 2.011837e+03 |  76.25%| unknown
t 6.9s|     1 |     0 | 24364 |     - |  trysol|   0 |  19k|9680 |  29k| 852 |  7 |3200 |   0 | 1.141446e+03 | 1.926499e+03 |  68.78%| unknown
  7.0s|     1 |     0 | 24399 |     - |   282M |   0 |  19k|9680 |  29k| 858 |  8 |3200 |   0 | 1.141450e+03 | 1.926499e+03 |  68.78%| unknown
 time | node  | left  |LP iter|LP it/n|mem/heur|mdpt |vars |cons |rows |cuts |sepa|confs|strbr|  dualbound   | primalbound  |  gap   | compl. 
  7.1s|     1 |     0 | 24401 |     - |   282M |   0 |  19k|9680 |  13k| 858 |  8 |3200 |   0 | 1.141450e+03 | 1.926499e+03 |  68.78%| unknown
r 7.3s|     1 |     0 | 24401 |     - |shifting|   0 |  19k|9680 |  13k| 858 |  8 |3200 |   0 | 1.141450e+03 | 1.801682e+03 |  57.84%| unknown
  7.4s|     1 |     0 | 24435 |     - |   284M |   0 |  19k|9680 |  13k| 867 |  9 |3200 |   0 | 1.141458e+03 | 1.801682e+03 |  57.84%| unknown
  7.5s|     1 |     0 | 24436 |     - |   284M |   0 |  19k|9680 |  13k| 867 |  9 |3200 |   0 | 1.141458e+03 | 1.801682e+03 |  57.84%| unknown
  7.6s|     1 |     0 | 24438 |     - |   286M |   0 |  19k|9680 |  13k| 868 | 10 |3200 |   0 | 1.141458e+03 | 1.801682e+03 |  57.84%| unknown
L99.6s|     1 |     0 |183128 |     - |    rens|   0 |  19k|9680 |  13k| 868 | 11 |7133 |   0 | 1.141458e+03 | 1.141463e+03 |   0.00%| unknown
  101s|     1 |     0 |183128 |     - |   299M |   0 |  19k|9680 |  13k| 868 | 11 |7133 |   0 | 1.141458e+03 | 1.141463e+03 |   0.00%| unknown
  101s|     1 |     0 |183181 |     - |   299M |   0 |  19k|9680 |  13k| 868 | 11 |7133 |   0 | 1.141458e+03 | 1.141463e+03 |   0.00%| unknown
  101s|     1 |     0 |183217 |     - |   301M |   0 |  19k|9592 |  12k| 893 | 12 |7133 |   0 | 1.141458e+03 | 1.141463e+03 |   0.00%| unknown
  102s|     1 |     0 |183217 |     - |   301M |   0 |  19k|9592 |  12k| 893 | 12 |7133 |   0 | 1.141458e+03 | 1.141463e+03 |   0.00%| unknown
  102s|     1 |     0 |183217 |     - |   301M |   0 |  19k|9592 |  12k| 893 | 12 |7133 |   0 | 1.141458e+03 | 1.141463e+03 |   0.00%| unknown
  102s|     1 |     0 |183323 |     - |   301M |   0 |  19k|8348 |  12k| 893 | 13 |7133 |   0 | 1.141458e+03 | 1.141463e+03 |   0.00%| unknown
  102s|     1 |     0 |183328 |     - |   302M |   0 |  19k|8348 |  12k| 897 | 14 |7133 |   0 | 1.141458e+03 | 1.141463e+03 |   0.00%| unknown
(run 1, node 1) restarting after 376 global fixings of integer variables

(restart) converted 1 cuts from the global cut pool into linear constraints

presolving:
(round 1, fast)       10309 del vars, 174 del conss, 0 add conss, 205 chg bounds, 0 chg sides, 0 chg coeffs, 159 upgd conss, 4200 impls, 2232 clqs
(round 2, fast)       10483 del vars, 333 del conss, 0 add conss, 3390 chg bounds, 0 chg sides, 0 chg coeffs, 159 upgd conss, 4200 impls, 2232 clqs
(round 3, fast)       10642 del vars, 333 del conss, 0 add conss, 3390 chg bounds, 0 chg sides, 0 chg coeffs, 159 upgd conss, 4200 impls, 2232 clqs
presolving (4 rounds: 4 fast, 1 medium, 1 exhaustive):
 10642 deleted vars, 333 deleted constraints, 0 added constraints, 3390 tightened bounds, 0 added holes, 0 changed sides, 0 changed coefficients
 4200 implications, 2232 cliques
presolved problem has 8598 variables (2864 bin, 0 int, 0 impl, 5734 cont) and 8016 constraints
   2836 constraints of type <varbound>
   2232 constraints of type <setppc>
     81 constraints of type <linear>
   2867 constraints of type <nonlinear>
Presolving Time: 2.82
transformed 1/7 original solutions to the transformed problem space

 time | node  | left  |LP iter|LP it/n|mem/heur|mdpt |vars |cons |rows |cuts |sepa|confs|strbr|  dualbound   | primalbound  |  gap   | compl. 
  105s|     1 |     0 |199100 |     - |   312M |   0 |  17k|8016 |  25k|   0 |  0 |7133 |   0 | 1.141458e+03 | 1.141463e+03 |   0.00%| unknown
  105s|     1 |     0 |199678 |     - |   318M |   0 |  17k|8016 |  25k| 261 |  1 |7133 |   0 | 1.141458e+03 | 1.141463e+03 |   0.00%| unknown
  106s|     1 |     0 |200069 |     - |   322M |   0 |  17k|8016 |  25k| 446 |  2 |7133 |   0 | 1.141458e+03 | 1.141463e+03 |   0.00%| unknown
  106s|     1 |     0 |200662 |     - |   325M |   0 |  17k|8016 |  25k| 590 |  3 |7133 |   0 | 1.141458e+03 | 1.141463e+03 |   0.00%| unknown
  106s|     1 |     0 |200663 |     - |   326M |   0 |  17k|8016 |  25k| 590 |  3 |7133 |   0 | 1.141458e+03 | 1.141463e+03 |   0.00%| unknown
  106s|     1 |     0 |200947 |     - |   328M |   0 |  17k|8016 |  25k| 703 |  4 |7133 |   0 | 1.141458e+03 | 1.141463e+03 |   0.00%| unknown
  106s|     1 |     0 |200952 |     - |   329M |   0 |  17k|8016 |  25k| 703 |  4 |7133 |   0 | 1.141458e+03 | 1.141463e+03 |   0.00%| unknown
  107s|     1 |     0 |201265 |     - |   332M |   0 |  17k|8014 |  25k| 781 |  5 |7133 |   0 | 1.141458e+03 | 1.141463e+03 |   0.00%| unknown
  107s|     1 |     0 |201268 |     - |   332M |   0 |  17k|8014 |  25k| 781 |  5 |7133 |   0 | 1.141458e+03 | 1.141463e+03 |   0.00%| unknown
  107s|     1 |     0 |201423 |     - |   333M |   0 |  17k|8012 |  11k| 859 |  6 |7133 |   0 | 1.141458e+03 | 1.141463e+03 |   0.00%| unknown
  107s|     1 |     0 |201424 |     - |   333M |   0 |  17k|8012 |  11k| 859 |  6 |7133 |   0 | 1.141458e+03 | 1.141463e+03 |   0.00%| unknown
  108s|     1 |     0 |201696 |     - |   335M |   0 |  17k|8010 |  11k| 885 |  7 |7133 |   0 | 1.141458e+03 | 1.141463e+03 |   0.00%| unknown
  108s|     1 |     0 |201697 |     - |   335M |   0 |  17k|8010 |  11k| 885 |  7 |7133 |   0 | 1.141458e+03 | 1.141463e+03 |   0.00%| unknown
  108s|     1 |     0 |201750 |     - |   341M |   0 |  17k|8009 |  11k| 906 |  8 |7133 |   0 | 1.141458e+03 | 1.141463e+03 |   0.00%| unknown
  108s|     1 |     0 |201751 |     - |   341M |   0 |  17k|8009 |  11k| 906 |  8 |7133 |   0 | 1.141458e+03 | 1.141463e+03 |   0.00%| unknown
 time | node  | left  |LP iter|LP it/n|mem/heur|mdpt |vars |cons |rows |cuts |sepa|confs|strbr|  dualbound   | primalbound  |  gap   | compl. 
  108s|     1 |     0 |201848 |     - |   348M |   0 |  17k|8009 |  11k| 917 |  9 |7133 |   0 | 1.141458e+03 | 1.141463e+03 |   0.00%| unknown
  108s|     1 |     0 |201849 |     - |   348M |   0 |  17k|8009 |  11k| 917 |  9 |7133 |   0 | 1.141458e+03 | 1.141463e+03 |   0.00%| unknown
  109s|     1 |     0 |201918 |     - |   349M |   0 |  17k|8006 |  11k| 933 | 10 |7133 |   0 | 1.141458e+03 | 1.141463e+03 |   0.00%| unknown
  109s|     1 |     0 |201918 |     - |   349M |   0 |  17k|8006 |  11k| 933 | 10 |7133 |   0 | 1.141458e+03 | 1.141463e+03 |   0.00%| unknown
  109s|     1 |     0 |202009 |     - |   350M |   0 |  17k|8004 |  11k| 944 | 11 |7133 |   0 | 1.141458e+03 | 1.141463e+03 |   0.00%| unknown
  109s|     1 |     0 |202012 |     - |   350M |   0 |  17k|8004 |  11k| 944 | 11 |7133 |   0 | 1.141458e+03 | 1.141463e+03 |   0.00%| unknown
  109s|     1 |     0 |202135 |     - |   352M |   0 |  17k|8002 |  11k| 971 | 12 |7133 |   0 | 1.141458e+03 | 1.141463e+03 |   0.00%| unknown
  109s|     1 |     0 |202137 |     - |   352M |   0 |  17k|8002 |  11k| 971 | 12 |7133 |   0 | 1.141458e+03 | 1.141463e+03 |   0.00%| unknown
  109s|     1 |     0 |202168 |     - |   353M |   0 |  17k|7996 |  11k| 978 | 13 |7133 |   0 | 1.141458e+03 | 1.141463e+03 |   0.00%| unknown
  109s|     1 |     0 |202179 |     - |   354M |   0 |  17k|7996 |  11k| 981 | 14 |7133 |   0 | 1.141458e+03 | 1.141463e+03 |   0.00%| unknown
  110s|     1 |     0 |202182 |     - |   355M |   0 |  17k|7996 |  11k| 983 | 15 |7133 |   0 | 1.141458e+03 | 1.141463e+03 |   0.00%| unknown
  110s|     1 |     0 |202184 |     - |   356M |   0 |  17k|7996 |  11k| 984 | 16 |7133 |   0 | 1.141458e+03 | 1.141463e+03 |   0.00%| unknown
  110s|     1 |     0 |202186 |     - |   357M |   0 |  17k|7996 |  11k| 985 | 17 |7133 |   0 | 1.141458e+03 | 1.141463e+03 |   0.00%| unknown
  256s|     1 |     0 |609691 |     - |   509M |   0 |  17k|2867 |  11k| 985 | 17 |7133 |   0 | 1.141462e+03 | 1.141463e+03 |   0.00%| unknown

SCIP Status        : solving was interrupted [gap limit reached]
Solving Time (sec) : 256.12
Solving Nodes      : 1 (total of 2 nodes in 2 runs)
Primal Bound       : +1.14146276602788e+03 (7 solutions)
Dual Bound         : +1.14146221480642e+03
Gap                : 0.00 %
Generating Gunluk and Lee data file ../../../../../instances/uflp/gunluk/gunluk-40-80-6.txt
primal_bound = 1141.4627660278843, dual_bound = 1141.462214806418, gap = 4.829079692935894e-5, time = 258.71
